(set-option :produce-models true); benchmark generated from python API
(set-info :status unknown)
(declare-fun l_0_0_6 () Real)
(declare-fun l_0_0_5 () Real)
(declare-fun l_0_0_3 () Real)
(declare-fun l_0_0_2 () Real)
(declare-fun _a_0_ () Real)
(declare-fun l_0_0_4 () Real)
(declare-fun l_0_0_1 () Real)
(declare-fun _a_1_ () Real)
(declare-fun l_0_1_8 () Real)
(declare-fun l_0_1_7 () Real)
(declare-fun l_0_1_5 () Real)
(declare-fun l_0_1_4 () Real)
(declare-fun l_0_1_3 () Real)
(declare-fun l_0_1_2 () Real)
(declare-fun l_0_1_1 () Real)
(declare-fun l_0_1_6 () Real)
(declare-fun l_0_1_9 () Real)
(declare-fun l_0_2_1 () Real)
(declare-fun l_0_2_3 () Real)
(declare-fun l_0_2_4 () Real)
(declare-fun l_0_2_6 () Real)
(declare-fun l_0_2_7 () Real)
(declare-fun l_0_2_9 () Real)
(assert
 (let ((?x40 (* l_0_0_6 l_0_0_6)))
 (let ((?x38 (* l_0_0_5 l_0_0_5)))
 (let ((?x37 (- (- _a_0_ (* (* 1.0 l_0_0_2) l_0_0_2)) (* (* 1.0 l_0_0_3) l_0_0_3))))
 (= (- (- ?x37 ?x38) ?x40) 0.0)))))
(assert
 (let ((?x83 (- (- _a_1_ (* (* 2.0 l_0_0_1) l_0_0_2)) (* (* 2.0 l_0_0_4) l_0_0_5))))
 (= ?x83 0.0)))
(assert
 (let ((?x103 (* l_0_0_4 l_0_0_4)))
 (let ((?x66 (* l_0_0_3 l_0_0_3)))
 (let ((?x102 (+ (+ (* (* (- 1.0) l_0_0_1) l_0_0_1) (* l_0_0_2 l_0_0_2)) ?x66)))
 (= (- (- ?x102 ?x103) 1.0) 0.0)))))
(assert
 (let ((?x107 (* l_0_0_1 l_0_0_1)))
 (= ?x107 0.0)))
(assert
 (let ((?x79 (* (* 2.0 l_0_0_1) l_0_0_2)))
 (= ?x79 0.0)))
(assert
 (>= l_0_0_1 0.0))
(assert
 (>= l_0_0_3 0.0))
(assert
 (>= l_0_0_4 0.0))
(assert
 (>= l_0_0_6 0.0))
(assert
 (let ((?x131 (- (* (* (* (- 2.0) _a_0_) l_0_1_1) l_0_1_2) (* _a_1_ (+ (* l_0_1_2 l_0_1_2) (* l_0_1_3 l_0_1_3))))))
 (let ((?x138 (- (+ ?x131 (* (* 18.0 l_0_1_4) l_0_1_5)) (* (* 2.0 l_0_1_7) l_0_1_8))))
 (= (+ ?x138 8.0) 0.0))))
(assert
 (let ((?x187 (* l_0_1_7 l_0_1_7)))
 (let ((?x185 (* l_0_1_6 l_0_1_6)))
 (let ((?x183 (* l_0_1_5 l_0_1_5)))
 (let ((?x179 (* l_0_1_4 l_0_1_4)))
 (let ((?x181 (* 9.0 ?x179)))
 (let ((?x128 (* l_0_1_3 l_0_1_3)))
 (let ((?x127 (* l_0_1_2 l_0_1_2)))
 (let ((?x176 (- (* (* (- _a_0_) l_0_1_1) l_0_1_1) (* (* (* 2.0 _a_1_) l_0_1_1) l_0_1_2))))
 (let ((?x189 (- (- (- (- (+ (+ (+ ?x176 ?x127) ?x128) ?x181) ?x183) ?x185) ?x187) 1.0)))
 (= ?x189 0.0)))))))))))
(assert
 (let ((?x220 (* l_0_1_9 l_0_1_9)))
 (let ((?x218 (* l_0_1_8 l_0_1_8)))
 (let ((?x185 (* l_0_1_6 l_0_1_6)))
 (let ((?x216 (* 9.0 ?x185)))
 (let ((?x183 (* l_0_1_5 l_0_1_5)))
 (let ((?x214 (* 9.0 ?x183)))
 (let ((?x215 (+ (* (- _a_0_) (+ (* l_0_1_2 l_0_1_2) (* l_0_1_3 l_0_1_3))) ?x214)))
 (= (- (- (- (+ ?x215 ?x216) ?x218) ?x220) 15.0) 0.0)))))))))
(assert
 (let ((?x247 (+ (* (* (- _a_1_) l_0_1_1) l_0_1_1) (* (* 2.0 l_0_1_1) l_0_1_2))))
 (= (- ?x247 (* (* 2.0 l_0_1_4) l_0_1_5)) 0.0)))
(assert
 (= (- (* l_0_1_1 l_0_1_1) (* l_0_1_4 l_0_1_4)) 0.0))
(assert
 (>= l_0_1_1 0.0))
(assert
 (>= l_0_1_3 0.0))
(assert
 (>= l_0_1_4 0.0))
(assert
 (>= l_0_1_6 0.0))
(assert
 (>= l_0_1_7 0.0))
(assert
 (>= l_0_1_9 0.0))
(assert
 false)
(assert
 (>= l_0_2_1 0.0))
(assert
 (>= l_0_2_3 0.0))
(assert
 (>= l_0_2_4 0.0))
(assert
 (>= l_0_2_6 0.0))
(assert
 (>= l_0_2_7 0.0))
(assert
 (>= l_0_2_9 0.0))
(check-sat)
(get-model)